feasible solution found by trivial heuristic after 0.0 seconds, objective value 0.000000e+00
presolving:
(round 1, fast)       2993 del vars, 0 del conss, 0 add conss, 0 chg bounds, 0 chg sides, 0 chg coeffs, 0 upgd conss, 0 impls, 2993 clqs
   (0.0s) running MILP presolver
   (0.0s) MILP presolver found nothing
(round 2, exhaustive) 2993 del vars, 0 del conss, 0 add conss, 0 chg bounds, 0 chg sides, 0 chg coeffs, 3635 upgd conss, 0 impls, 2993 clqs
(round 3, fast)       3008 del vars, 0 del conss, 0 add conss, 0 chg bounds, 0 chg sides, 0 chg coeffs, 3635 upgd conss, 0 impls, 2993 clqs
   (0.1s) probing: 51/766 (6.7%) - 0 fixings, 0 aggregations, 0 implications, 0 bound changes
   (0.1s) probing aborted: 50/50 successive totally useless probings
   (0.1s) symmetry computation started: requiring (bin +, int -, cont +), (fixed: bin -, int +, cont -)
   (0.1s) no symmetry present
presolving (4 rounds: 4 fast, 2 medium, 2 exhaustive):
 3008 deleted vars, 0 deleted constraints, 0 added constraints, 0 tightened bounds, 0 added holes, 0 changed sides, 15 changed coefficients
 0 implications, 3008 cliques
presolved problem has 766 variables (766 bin, 0 int, 0 impl, 0 cont) and 3635 constraints
   2993 constraints of type <setppc>
    642 constraints of type <logicor>
transformed objective value is always integral (scale: 0.0133333333333333)
Presolving Time: 0.09
transformed 1/2 original solutions to the transformed problem space

 time | node  | left  |LP iter|LP it/n|mem/heur|mdpt |vars |cons |rows |cuts |sepa|confs|strbr|  dualbound   | primalbound  |  gap   | compl. 
p 0.1s|     1 |     0 |     0 |     - |   locks|   0 | 766 |3635 |3635 |   0 |  0 |   0 |   0 | 6.862000e+03 | 5.740000e+02 |1095.47%| unknown
  0.1s|     1 |     0 |   139 |     - |    24M |   0 | 766 |3635 |3635 |   0 |  0 |   0 |   0 | 3.431000e+03 | 5.740000e+02 | 497.74%| unknown
  0.2s|     1 |     0 |   175 |     - |    25M |   0 | 766 |3635 |3637 |   2 |  1 |   0 |   0 | 3.258500e+03 | 5.740000e+02 | 467.68%| unknown
  0.3s|     1 |     0 |   234 |     - |    25M |   0 | 766 |3635 |3640 |   5 |  2 |   0 |   0 | 3.055000e+03 | 5.740000e+02 | 432.23%| unknown
  0.3s|     1 |     0 |   288 |     - |    26M |   0 | 766 |3635 |3642 |   7 |  3 |   0 |   0 | 2.898500e+03 | 5.740000e+02 | 404.97%| unknown
  0.4s|     1 |     0 |   337 |     - |    26M |   0 | 766 |3635 |3644 |   9 |  4 |   0 |   0 | 2.753500e+03 | 5.740000e+02 | 379.70%| unknown
  0.5s|     1 |     0 |   399 |     - |    26M |   0 | 766 |3635 |3651 |  16 |  5 |   0 |   0 | 2.581000e+03 | 5.740000e+02 | 349.65%| unknown
  0.6s|     1 |     0 |   454 |     - |    27M |   0 | 766 |3635 |3661 |  26 |  6 |   0 |   0 | 2.403500e+03 | 5.740000e+02 | 318.73%| unknown
  0.7s|     1 |     0 |   551 |     - |    27M |   0 | 766 |3635 |3667 |  32 |  7 |   0 |   0 | 2.249000e+03 | 5.740000e+02 | 291.81%| unknown
  0.9s|     1 |     0 |   603 |     - |    28M |   0 | 766 |3635 |3670 |  35 |  8 |   0 |   0 | 2.187000e+03 | 5.740000e+02 | 281.01%| unknown
  1.0s|     1 |     0 |   669 |     - |    28M |   0 | 766 |3635 |3678 |  43 |  9 |   0 |   0 | 2.110800e+03 | 5.740000e+02 | 267.74%| unknown
  1.2s|     1 |     0 |   754 |     - |    28M |   0 | 766 |3635 |3686 |  51 | 10 |   0 |   0 | 2.068258e+03 | 5.740000e+02 | 260.32%| unknown
  1.2s|     1 |     0 |   831 |     - |    29M |   0 | 766 |3635 |3695 |  60 | 11 |   0 |   0 | 2.015100e+03 | 5.740000e+02 | 251.06%| unknown
  1.3s|     1 |     0 |   932 |     - |    29M |   0 | 766 |3635 |3700 |  65 | 12 |   0 |   0 | 1.954398e+03 | 5.740000e+02 | 240.49%| unknown
  1.3s|     1 |     0 |  1013 |     - |    30M |   0 | 766 |3635 |3705 |  70 | 13 |   0 |   0 | 1.897100e+03 | 5.740000e+02 | 230.51%| unknown
 time | node  | left  |LP iter|LP it/n|mem/heur|mdpt |vars |cons |rows |cuts |sepa|confs|strbr|  dualbound   | primalbound  |  gap   | compl. 
  1.4s|     1 |     0 |  1097 |     - |    30M |   0 | 766 |3635 |3708 |  73 | 14 |   0 |   0 | 1.862600e+03 | 5.740000e+02 | 224.49%| unknown
  1.4s|     1 |     0 |  1172 |     - |    31M |   0 | 766 |3635 |3711 |  76 | 15 |   0 |   0 | 1.831745e+03 | 5.740000e+02 | 219.12%| unknown
  1.5s|     1 |     0 |  1259 |     - |    31M |   0 | 766 |3635 |3713 |  78 | 16 |   0 |   0 | 1.809250e+03 | 5.740000e+02 | 215.20%| unknown
  1.5s|     1 |     0 |  1325 |     - |    31M |   0 | 766 |3635 |3715 |  80 | 17 |   0 |   0 | 1.798111e+03 | 5.740000e+02 | 213.26%| unknown
  1.6s|     1 |     0 |  1445 |     - |    32M |   0 | 766 |3635 |3722 |  87 | 18 |   0 |   0 | 1.756463e+03 | 5.740000e+02 | 206.00%| unknown
  1.6s|     1 |     0 |  1543 |     - |    32M |   0 | 766 |3635 |3728 |  93 | 19 |   0 |   0 | 1.726379e+03 | 5.740000e+02 | 200.76%| unknown
  1.7s|     1 |     0 |  1632 |     - |    33M |   0 | 766 |3635 |3733 |  98 | 20 |   0 |   0 | 1.709226e+03 | 5.740000e+02 | 197.77%| unknown
  1.7s|     1 |     0 |  1747 |     - |    33M |   0 | 766 |3635 |3737 | 102 | 21 |   0 |   0 | 1.680764e+03 | 5.740000e+02 | 192.82%| unknown
  1.7s|     1 |     0 |  1869 |     - |    33M |   0 | 766 |3635 |3742 | 107 | 22 |   0 |   0 | 1.650238e+03 | 5.740000e+02 | 187.50%| unknown
  1.8s|     1 |     0 |  1989 |     - |    33M |   0 | 766 |3635 |3739 | 109 | 23 |   0 |   0 | 1.618065e+03 | 5.740000e+02 | 181.89%| unknown
  1.8s|     1 |     0 |  2103 |     - |    33M |   0 | 766 |3635 |3744 | 114 | 24 |   0 |   0 | 1.590946e+03 | 5.740000e+02 | 177.17%| unknown
  1.8s|     1 |     0 |  2195 |     - |    33M |   0 | 766 |3635 |3748 | 118 | 25 |   0 |   0 | 1.570909e+03 | 5.740000e+02 | 173.68%| unknown
  1.8s|     1 |     0 |  2289 |     - |    33M |   0 | 766 |3635 |3753 | 123 | 26 |   0 |   0 | 1.546771e+03 | 5.740000e+02 | 169.47%| unknown
  1.9s|     1 |     0 |  2338 |     - |    33M |   0 | 766 |3635 |3754 | 124 | 27 |   0 |   0 | 1.536082e+03 | 5.740000e+02 | 167.61%| unknown
  1.9s|     1 |     0 |  2477 |     - |    34M |   0 | 766 |3635 |3760 | 130 | 28 |   0 |   0 | 1.517520e+03 | 5.740000e+02 | 164.38%| unknown
 time | node  | left  |LP iter|LP it/n|mem/heur|mdpt |vars |cons |rows |cuts |sepa|confs|strbr|  dualbound   | primalbound  |  gap   | compl. 
  1.9s|     1 |     0 |  2566 |     - |    34M |   0 | 766 |3635 |3760 | 135 | 29 |   0 |   0 | 1.505631e+03 | 5.740000e+02 | 162.31%| unknown
  2.0s|     1 |     0 |  2689 |     - |    34M |   0 | 766 |3635 |3765 | 140 | 30 |   0 |   0 | 1.490640e+03 | 5.740000e+02 | 159.69%| unknown
  2.0s|     1 |     0 |  2749 |     - |    34M |   0 | 766 |3635 |3769 | 144 | 31 |   0 |   0 | 1.484074e+03 | 5.740000e+02 | 158.55%| unknown
  2.0s|     1 |     0 |  2795 |     - |    34M |   0 | 766 |3635 |3774 | 149 | 32 |   0 |   0 | 1.477159e+03 | 5.740000e+02 | 157.34%| unknown
  2.0s|     1 |     0 |  2845 |     - |    34M |   0 | 766 |3635 |3777 | 152 | 33 |   0 |   0 | 1.473413e+03 | 5.740000e+02 | 156.69%| unknown
  2.0s|     1 |     0 |  2912 |     - |    34M |   0 | 766 |3635 |3788 | 163 | 34 |   0 |   0 | 1.464791e+03 | 5.740000e+02 | 155.19%| unknown
  2.1s|     1 |     0 |  2985 |     - |    34M |   0 | 766 |3635 |3779 | 169 | 35 |   0 |   0 | 1.456372e+03 | 5.740000e+02 | 153.72%| unknown
  2.1s|     1 |     0 |  3015 |     - |    34M |   0 | 766 |3635 |3786 | 176 | 36 |   0 |   0 | 1.452669e+03 | 5.740000e+02 | 153.08%| unknown
  2.1s|     1 |     0 |  3042 |     - |    34M |   0 | 766 |3635 |3790 | 180 | 37 |   0 |   0 | 1.449385e+03 | 5.740000e+02 | 152.51%| unknown
  2.1s|     1 |     0 |  3096 |     - |    34M |   0 | 766 |3635 |3795 | 185 | 38 |   0 |   0 | 1.443755e+03 | 5.740000e+02 | 151.53%| unknown
  2.1s|     1 |     0 |  3130 |     - |    34M |   0 | 766 |3635 |3798 | 188 | 39 |   0 |   0 | 1.441303e+03 | 5.740000e+02 | 151.10%| unknown
  2.1s|     1 |     0 |  3159 |     - |    34M |   0 | 766 |3635 |3802 | 192 | 40 |   0 |   0 | 1.438178e+03 | 5.740000e+02 | 150.55%| unknown
  2.2s|     1 |     0 |  3185 |     - |    34M |   0 | 766 |3635 |3800 | 197 | 41 |   0 |   0 | 1.435437e+03 | 5.740000e+02 | 150.08%| unknown
  2.2s|     1 |     0 |  3212 |     - |    34M |   0 | 766 |3635 |3802 | 199 | 42 |   0 |   0 | 1.432250e+03 | 5.740000e+02 | 149.52%| unknown
  2.2s|     1 |     0 |  3250 |     - |    34M |   0 | 766 |3635 |3804 | 201 | 43 |   0 |   0 | 1.429116e+03 | 5.740000e+02 | 148.97%| unknown
 time | node  | left  |LP iter|LP it/n|mem/heur|mdpt |vars |cons |rows |cuts |sepa|confs|strbr|  dualbound   | primalbound  |  gap   | compl. 
  2.2s|     1 |     0 |  3286 |     - |    34M |   0 | 766 |3635 |3808 | 205 | 44 |   0 |   0 | 1.426814e+03 | 5.740000e+02 | 148.57%| unknown
  2.2s|     1 |     0 |  3329 |     - |    34M |   0 | 766 |3635 |3813 | 210 | 45 |   0 |   0 | 1.423281e+03 | 5.740000e+02 | 147.96%| unknown
  2.3s|     1 |     0 |  3368 |     - |    34M |   0 | 766 |3635 |3815 | 212 | 46 |   0 |   0 | 1.420537e+03 | 5.740000e+02 | 147.48%| unknown
  2.3s|     1 |     0 |  3402 |     - |    34M |   0 | 766 |3635 |3800 | 215 | 47 |   0 |   0 | 1.419128e+03 | 5.740000e+02 | 147.23%| unknown
  2.3s|     1 |     0 |  3443 |     - |    34M |   0 | 766 |3635 |3807 | 222 | 48 |   0 |   0 | 1.414869e+03 | 5.740000e+02 | 146.49%| unknown
  2.3s|     1 |     0 |  3495 |     - |    34M |   0 | 766 |3635 |3812 | 227 | 49 |   0 |   0 | 1.410038e+03 | 5.740000e+02 | 145.65%| unknown
  2.3s|     1 |     0 |  3522 |     - |    34M |   0 | 766 |3635 |3818 | 233 | 50 |   0 |   0 | 1.407214e+03 | 5.740000e+02 | 145.16%| unknown
  2.4s|     1 |     0 |  3574 |     - |    34M |   0 | 766 |3635 |3823 | 238 | 51 |   0 |   0 | 1.402403e+03 | 5.740000e+02 | 144.32%| unknown
  2.4s|     1 |     0 |  3623 |     - |    34M |   0 | 766 |3635 |3827 | 242 | 52 |   0 |   0 | 1.399462e+03 | 5.740000e+02 | 143.81%| unknown
  2.4s|     1 |     0 |  3677 |     - |    35M |   0 | 766 |3635 |3818 | 247 | 53 |   0 |   0 | 1.393483e+03 | 5.740000e+02 | 142.77%| unknown
  2.4s|     1 |     0 |  3728 |     - |    35M |   0 | 766 |3635 |3823 | 252 | 54 |   0 |   0 | 1.389840e+03 | 5.740000e+02 | 142.13%| unknown
  2.4s|     1 |     0 |  3773 |     - |    35M |   0 | 766 |3635 |3826 | 255 | 55 |   0 |   0 | 1.386585e+03 | 5.740000e+02 | 141.57%| unknown
  2.5s|     1 |     0 |  3798 |     - |    35M |   0 | 766 |3635 |3828 | 257 | 56 |   0 |   0 | 1.385500e+03 | 5.740000e+02 | 141.38%| unknown
  2.5s|     1 |     0 |  3838 |     - |    35M |   0 | 766 |3635 |3831 | 260 | 57 |   0 |   0 | 1.382188e+03 | 5.740000e+02 | 140.80%| unknown
  2.5s|     1 |     0 |  3870 |     - |    35M |   0 | 766 |3635 |3837 | 266 | 58 |   0 |   0 | 1.379634e+03 | 5.740000e+02 | 140.35%| unknown
 time | node  | left  |LP iter|LP it/n|mem/heur|mdpt |vars |cons |rows |cuts |sepa|confs|strbr|  dualbound   | primalbound  |  gap   | compl. 
  2.5s|     1 |     0 |  3904 |     - |    35M |   0 | 766 |3635 |3822 | 272 | 59 |   0 |   0 | 1.376459e+03 | 5.740000e+02 | 139.80%| unknown
  2.6s|     1 |     0 |  3934 |     - |    35M |   0 | 766 |3635 |3826 | 276 | 60 |   0 |   0 | 1.374460e+03 | 5.740000e+02 | 139.45%| unknown
  2.6s|     1 |     0 |  3967 |     - |    35M |   0 | 766 |3635 |3830 | 280 | 61 |   0 |   0 | 1.371758e+03 | 5.740000e+02 | 138.98%| unknown
  2.6s|     1 |     0 |  3998 |     - |    35M |   0 | 766 |3635 |3833 | 283 | 62 |   0 |   0 | 1.370411e+03 | 5.740000e+02 | 138.75%| unknown
  2.6s|     1 |     0 |  4013 |     - |    35M |   0 | 766 |3635 |3836 | 286 | 63 |   0 |   0 | 1.370013e+03 | 5.740000e+02 | 138.68%| unknown
  2.6s|     1 |     0 |  4042 |     - |    35M |   0 | 766 |3635 |3839 | 289 | 64 |   0 |   0 | 1.369146e+03 | 5.740000e+02 | 138.53%| unknown
  2.6s|     1 |     0 |  4069 |     - |    35M |   0 | 766 |3635 |3825 | 294 | 65 |   0 |   0 | 1.368498e+03 | 5.740000e+02 | 138.41%| unknown
  2.7s|     1 |     0 |  4113 |     - |    35M |   0 | 766 |3635 |3833 | 302 | 66 |   0 |   0 | 1.367313e+03 | 5.740000e+02 | 138.21%| unknown
r 2.7s|     1 |     0 |  4113 |     - |randroun|   0 | 766 |3635 |3833 |   0 | 66 |   0 |   0 | 1.367313e+03 | 5.870000e+02 | 132.93%| unknown
  2.7s|     1 |     0 |  4145 |     - |    35M |   0 | 766 |3635 |3840 | 309 | 67 |   0 |   0 | 1.366427e+03 | 5.870000e+02 | 132.78%| unknown
i 2.7s|     1 |     0 |  4145 |     - |  oneopt|   0 | 766 |3635 |3840 | 309 | 67 |   0 |   0 | 1.366427e+03 | 6.700000e+02 | 103.94%| unknown
  2.8s|     1 |     0 |  4172 |     - |    36M |   0 | 766 |3635 |3845 | 314 | 68 |   0 |   0 | 1.365956e+03 | 6.700000e+02 | 103.87%| unknown
  2.8s|     1 |     0 |  4201 |     - |    36M |   0 | 766 |3635 |3850 | 319 | 69 |   0 |   0 | 1.364796e+03 | 6.700000e+02 | 103.70%| unknown
  2.8s|     1 |     0 |  4229 |     - |    36M |   0 | 766 |3635 |3851 | 320 | 70 |   0 |   0 | 1.364100e+03 | 6.700000e+02 | 103.60%| unknown
  2.9s|     1 |     0 |  4259 |     - |    36M |   0 | 766 |3635 |3828 | 323 | 71 |   0 |   0 | 1.363430e+03 | 6.700000e+02 | 103.50%| unknown
 time | node  | left  |LP iter|LP it/n|mem/heur|mdpt |vars |cons |rows |cuts |sepa|confs|strbr|  dualbound   | primalbound  |  gap   | compl. 
  2.9s|     1 |     0 |  4283 |     - |    36M |   0 | 766 |3635 |3834 | 329 | 72 |   0 |   0 | 1.362896e+03 | 6.700000e+02 | 103.42%| unknown
  2.9s|     1 |     0 |  4308 |     - |    36M |   0 | 766 |3635 |3840 | 335 | 73 |   0 |   0 | 1.362242e+03 | 6.700000e+02 | 103.32%| unknown
  2.9s|     1 |     0 |  4330 |     - |    36M |   0 | 766 |3635 |3843 | 338 | 74 |   0 |   0 | 1.362006e+03 | 6.700000e+02 | 103.28%| unknown
  3.0s|     1 |     0 |  4351 |     - |    36M |   0 | 766 |3635 |3845 | 340 | 75 |   0 |   0 | 1.361782e+03 | 6.700000e+02 | 103.25%| unknown
  3.0s|     1 |     0 |  4371 |     - |    36M |   0 | 766 |3635 |3847 | 342 | 76 |   0 |   0 | 1.361586e+03 | 6.700000e+02 | 103.22%| unknown
  3.0s|     1 |     0 |  4389 |     - |    36M |   0 | 766 |3635 |3820 | 344 | 77 |   0 |   0 | 1.361397e+03 | 6.700000e+02 | 103.19%| unknown
  3.0s|     1 |     0 |  4406 |     - |    36M |   0 | 766 |3635 |3822 | 346 | 78 |   0 |   0 | 1.361258e+03 | 6.700000e+02 | 103.17%| unknown
  3.1s|     1 |     0 |  4424 |     - |    36M |   0 | 766 |3635 |3828 | 352 | 80 |   0 |   0 | 1.361200e+03 | 6.700000e+02 | 103.16%| unknown
  3.1s|     1 |     0 |  4434 |     - |    36M |   0 | 766 |3635 |3830 | 354 | 81 |   0 |   0 | 1.361168e+03 | 6.700000e+02 | 103.16%| unknown
  3.1s|     1 |     0 |  4437 |     - |    36M |   0 | 766 |3635 |3831 | 355 | 82 |   0 |   0 | 1.361154e+03 | 6.700000e+02 | 103.16%| unknown
d 3.3s|     1 |     0 |  4911 |     - |farkasdi|   0 | 766 |3635 |3831 |   0 | 84 |   0 |   0 | 1.361154e+03 | 9.439067e+02 |  44.20%| unknown
  7.8s|     1 |     0 |  4911 |     - |    36M |   0 | 766 |3635 |3831 | 355 | 84 |   0 |   0 | 1.361154e+03 | 9.439067e+02 |  44.20%| unknown
 10.2s|     1 |     2 |  4911 |     - |    39M |   0 | 766 |3635 |3831 | 355 | 86 |   0 |  33 | 1.339887e+03 | 9.439067e+02 |  41.95%| unknown
 34.3s|   100 |    15 | 14068 |  97.3 |    54M |  17 | 766 |3726 |3809 | 539 |  0 |  91 |1046 | 1.256784e+03 | 9.439067e+02 |  33.15%|  31.49%
L34.9s|   121 |    18 | 14863 |  86.9 |    alns|  20 | 766 |3731 |3809 | 539 |  0 |  96 |1073 | 1.253738e+03 | 9.472400e+02 |  32.36%|  32.14%
 time | node  | left  |LP iter|LP it/n|mem/heur|mdpt |vars |cons |rows |cuts |sepa|confs|strbr|  dualbound   | primalbound  |  gap   | compl. 
 38.0s|   200 |    25 | 19349 |  74.9 |    57M |  23 | 766 |3737 |3821 | 605 |  2 | 102 |1202 | 1.228235e+03 | 9.472400e+02 |  29.66%|  34.65%
 44.7s|   300 |    29 | 23488 |  63.7 |    59M |  29 | 766 |3752 |3790 | 651 |  0 | 117 |1285 | 1.217852e+03 | 9.472400e+02 |  28.57%|  37.38%
 50.6s|   400 |    31 | 28089 |  59.3 |    62M |  33 | 766 |3758 |3791 | 741 |  1 | 123 |1350 | 1.217852e+03 | 9.472400e+02 |  28.57%|  39.62%
 52.6s|   500 |    35 | 31630 |  54.5 |    63M |  33 | 766 |3759 |3821 | 764 |  4 | 124 |1398 | 1.201204e+03 | 9.472400e+02 |  26.81%|  44.29%
L54.9s|   501 |    34 | 31651 |  54.4 |    gins|  33 | 766 |3759 |3819 | 764 |  0 | 124 |1398 | 1.201204e+03 | 9.482400e+02 |  26.68%|  44.29%
 59.9s|   600 |    39 | 35359 |  51.6 |    66M |  33 | 766 |3760 |3816 | 834 |  0 | 125 |1437 | 1.178043e+03 | 9.482400e+02 |  24.23%|  48.24%
 69.4s|   700 |    43 | 39031 |  49.5 |    67M |  33 | 766 |3769 |3784 | 891 |  1 | 134 |1469 | 1.159586e+03 | 9.482400e+02 |  22.29%|  51.23%
 72.6s|   800 |    41 | 42026 |  47.0 |    68M |  34 | 766 |3773 |3781 | 934 |  2 | 138 |1496 | 1.151982e+03 | 9.482400e+02 |  21.49%|  53.90%
 75.6s|   900 |    41 | 45502 |  45.7 |    68M |  35 | 766 |3775 |3781 | 964 |  0 | 140 |1523 | 1.149734e+03 | 9.482400e+02 |  21.25%|  56.07%
*76.4s|   902 |    41 | 45560 |  45.6 |    LP  |  35 | 766 |3775 |3784 | 967 |  1 | 140 |1523 | 1.149734e+03 | 9.568800e+02 |  20.15%|  56.11%
 78.7s|  1000 |    45 | 49191 |  44.8 |    69M |  41 | 766 |3780 |3810 | 996 |  0 | 145 |1548 | 1.139076e+03 | 9.568800e+02 |  19.04%|  59.62%
 82.2s|  1100 |    55 | 52803 |  44.0 |    69M |  41 | 766 |3786 |3812 |1059 |  0 | 151 |1576 | 1.113883e+03 | 9.568800e+02 |  16.41%|  63.11%
 85.9s|  1200 |    59 | 56077 |  43.1 |    69M |  41 | 766 |3787 |3802 |1085 |  0 | 152 |1607 | 1.101329e+03 | 9.568800e+02 |  15.10%|  67.34%
 88.6s|  1300 |    59 | 59247 |  42.2 |    70M |  41 | 766 |3787 |3791 |1114 |  0 | 152 |1628 | 1.080763e+03 | 9.568800e+02 |  12.95%|  71.16%
 93.1s|  1400 |    57 | 62693 |  41.6 |    70M |  41 | 766 |3787 |3803 |1167 |  0 | 152 |1637 | 1.059336e+03 | 9.568800e+02 |  10.71%|  78.85%
 time | node  | left  |LP iter|LP it/n|mem/heur|mdpt |vars |cons |rows |cuts |sepa|confs|strbr|  dualbound   | primalbound  |  gap   | compl. 
 94.3s|  1500 |    49 | 65970 |  41.0 |    70M |  41 | 766 |3796 |3785 |1170 |  0 | 161 |1664 | 1.046574e+03 | 9.568800e+02 |   9.37%|  83.72%
*96.2s|  1598 |    19 | 68875 |  40.3 |    LP  |  41 | 766 |3806 |3795 |1192 |  2 | 171 |1685 | 1.032840e+03 | 9.596267e+02 |   7.63%|  95.17%
 96.2s|  1600 |    19 | 68904 |  40.3 |    70M |  41 | 766 |3806 |3795 |1192 |  0 | 171 |1685 | 1.032840e+03 | 9.596267e+02 |   7.63%|  95.22%

SCIP Status        : problem is solved [optimal solution found]
Solving Time (sec) : 96.36
Solving Nodes      : 1621
Primal Bound       : +9.59626666666667e+02 (587 solutions)
Dual Bound         : +9.59626666666667e+02
Gap                : 0.00 %
Solve Status: optimal
Solve Time: 96.36 seconds
